
(set-logic ALL) 

(declare-datatype MyList ((Nil) (Cons (head Real) (tail MyList)) )) 
(declare-fun l0 () MyList) 
(declare-fun l1 () MyList) 
(declare-fun l2 () MyList) 
(declare-fun l3 () MyList) 
(declare-fun i0 () Real) 
(declare-fun i1 () Real) 
(assert (= l3 Nil) )
(assert (not (is-Nil l1)) )
(assert (and (= l0 l1) (= l3 Nil)) )
(assert (not (= l1 Nil)) )
(assert (and (= l0 Nil) (is-Nil Nil) (= l2 l1)) )
(assert (or (= l0 Nil) (= l3 Nil)) )
(assert (is-Nil Nil) )
(assert (and (is-Cons l0) (= l2 Nil)) )
(check-sat)
